<number of tasks>
70

<cycle time>
468

<task times>
1 17
2 66
3 54
4 52
5 6
6 88
7 21
8 128
9 68
10 70
11 85
12 21
13 134
14 135
15 94
16 90
17 50
18 143
19 19
20 54
21 50
22 40
23 73
24 12
25 152
26 42
27 45
28 74
29 26
30 11
31 31
32 50
33 102
34 46
35 35
36 40
37 2
38 1
39 3
40 13
41 16
42 25
43 21
44 43
45 30
46 83
47 89
48 56
49 59
50 43
51 11
52 26
53 44
54 121
55 38
56 68
57 22
58 7
59 16
60 32
61 25
62 27
63 156
64 28
65 15
66 26
67 18
68 72
69 23
70 27

<precedence relations>
1,2
1,41
1,69
1,70
2,3
3,4
3,68
4,6
4,7
5,6
5,24
5,30
6,8
7,8
8,12
9,10
10,11
11,12
12,13
12,14
13,23
14,23
15,16
16,17
16,18
17,19
18,19
19,20
19,22
19,57
20,21
21,23
22,23
23,25
23,31
23,33
24,25
25,26
25,27
25,28
25,29
26,35
27,35
28,35
29,35
30,31
31,32
32,35
33,34
34,35
35,36
35,44
35,48
35,51
35,53
35,56
35,60
35,61
35,62
36,37
37,38
38,39
39,40
40,42
41,42
42,43
43,50
44,45
45,46
46,47
47,50
48,49
49,50
51,52
52,54
53,54
54,55
57,58
58,59
59,60
61,65
62,63
63,64
64,65
64,66
64,67

<setup times forward>
1,10:20
1,11:20
1,16:20
1,17:20
1,18:8
1,19:8
1,20:7
1,21:7
1,22:7
1,24:20
1,30:20
1,41:8
1,57:1
1,58:1
1,59:1
1,69:18
1,70:18
2,10:20
2,11:20
2,16:20
2,17:20
2,18:8
2,19:8
2,20:7
2,21:7
2,22:7
2,24:20
2,30:20
2,41:8
2,57:1
2,58:1
2,59:1
2,69:18
2,70:18
3,10:20
3,11:20
3,16:20
3,17:20
3,18:8
3,19:8
3,20:7
3,21:7
3,22:7
3,24:20
3,30:20
3,41:8
3,57:1
3,58:1
3,59:1
3,68:1
3,69:18
3,70:18
4,10:20
4,11:20
4,16:20
4,17:20
4,18:8
4,19:8
4,20:7
4,21:7
4,22:7
4,24:20
4,30:20
4,41:8
4,57:1
4,58:1
4,59:1
4,68:1
4,69:18
4,70:18
5,10:20
5,11:20
5,16:20
5,17:20
5,18:8
5,19:8
5,20:7
5,21:7
5,22:7
5,24:20
5,30:20
5,41:8
5,57:1
5,58:1
5,59:1
5,68:1
5,69:18
5,70:18
6,8:20
6,10:20
6,11:20
6,16:20
6,17:20
6,18:8
6,19:8
6,20:7
6,21:7
6,22:7
6,24:20
6,30:20
6,41:8
6,57:1
6,58:1
6,59:1
6,68:1
6,69:18
6,70:18
7,8:20
7,10:20
7,11:20
7,16:20
7,17:20
7,18:8
7,19:8
7,20:7
7,21:7
7,22:7
7,24:20
7,30:20
7,41:8
7,57:1
7,58:1
7,59:1
7,68:1
7,69:18
7,70:18
8,9:20
8,15:20
8,18:28
8,19:28
8,20:13
8,21:13
8,22:13
8,41:28
8,57:21
8,58:21
8,59:21
8,68:21
8,69:38
8,70:38
9,8:20
9,10:20
9,16:20
9,17:20
9,18:8
9,19:8
9,20:7
9,21:7
9,22:7
9,24:20
9,30:20
9,41:8
9,57:1
9,58:1
9,59:1
9,68:1
9,69:18
9,70:18
10,1:20
10,2:20
10,3:20
10,4:20
10,5:20
10,6:20
10,7:20
10,15:20
10,18:28
10,19:28
10,20:13
10,21:13
10,22:13
10,41:28
10,57:21
10,58:21
10,59:21
10,68:21
10,69:38
10,70:38
11,1:20
11,2:20
11,3:20
11,4:20
11,5:20
11,6:20
11,7:20
11,15:20
11,18:28
11,19:28
11,20:13
11,21:13
11,22:13
11,41:28
11,57:21
11,58:21
11,59:21
11,68:21
11,69:38
11,70:38
12,13:28
12,14:28
12,15:20
12,18:28
12,19:28
12,20:13
12,21:13
12,22:13
12,41:28
12,57:21
12,58:21
12,59:21
12,68:21
12,69:38
12,70:38
13,15:8
13,16:28
13,17:28
13,20:15
13,21:15
13,22:15
13,23:15
13,24:28
13,30:28
13,57:7
13,58:7
13,59:7
13,68:7
13,69:10
13,70:10
14,15:8
14,16:28
14,17:28
14,20:15
14,21:15
14,22:15
14,23:15
14,24:28
14,30:28
14,57:7
14,58:7
14,59:7
14,68:7
14,69:10
14,70:10
15,8:20
15,10:20
15,11:20
15,12:20
15,13:8
15,14:8
15,16:20
15,24:20
15,30:20
15,41:8
15,68:1
15,69:18
15,70:18
16,1:20
16,2:20
16,3:20
16,4:20
16,5:20
16,6:20
16,7:20
16,9:20
16,13:28
16,14:28
16,18:28
16,41:28
16,68:21
16,69:38
16,70:38
17,1:20
17,2:20
17,3:20
17,4:20
17,5:20
17,6:20
17,7:20
17,9:20
17,13:28
17,14:28
17,18:28
17,19:28
17,41:28
17,68:21
17,69:38
17,70:38
18,1:8
18,2:8
18,3:8
18,4:8
18,5:8
18,6:8
18,7:8
18,8:28
18,9:8
18,10:28
18,11:28
18,12:28
18,17:28
18,24:28
18,30:28
18,68:7
18,69:10
18,70:10
19,1:8
19,2:8
19,3:8
19,4:8
19,5:8
19,6:8
19,7:8
19,8:28
19,9:8
19,10:28
19,11:28
19,12:28
19,20:15
19,22:15
19,24:28
19,30:28
19,57:7
19,68:7
19,69:10
19,70:10
20,1:7
20,2:7
20,3:7
20,4:7
20,5:7
20,6:7
20,7:7
20,8:13
20,9:7
20,10:13
20,11:13
20,12:13
20,13:15
20,14:15
20,24:13
20,30:13
20,41:15
20,57:8
20,58:8
20,59:8
20,68:8
20,69:25
20,70:25
21,1:7
21,2:7
21,3:7
21,4:7
21,5:7
21,6:7
21,7:7
21,8:13
21,9:7
21,10:13
21,11:13
21,12:13
21,13:15
21,14:15
21,24:13
21,30:13
21,41:15
21,57:8
21,58:8
21,59:8
21,68:8
21,69:25
21,70:25
22,1:7
22,2:7
22,3:7
22,4:7
22,5:7
22,6:7
22,7:7
22,8:13
22,9:7
22,10:13
22,11:13
22,12:13
22,13:15
22,14:15
22,24:13
22,30:13
22,41:15
22,57:8
22,58:8
22,59:8
22,68:8
22,69:25
22,70:25
23,24:13
23,30:13
23,33:2
23,41:15
23,57:8
23,58:8
23,59:8
23,68:8
23,69:25
23,70:25
24,1:20
24,2:20
24,3:20
24,4:20
24,6:20
24,7:20
24,9:20
24,13:28
24,14:28
24,15:20
24,18:28
24,19:28
24,20:13
24,21:13
24,22:13
24,23:13
24,25:13
24,31:13
24,32:13
24,33:15
24,34:15
24,41:28
24,57:21
24,58:21
24,59:21
24,68:21
24,69:38
24,70:38
25,26:2
25,27:2
25,28:2
25,29:2
25,30:13
25,33:2
25,34:2
25,41:15
25,57:8
25,58:8
25,59:8
25,68:8
25,69:25
25,70:25
26,30:15
26,31:2
26,32:2
26,41:13
26,57:6
26,58:6
26,59:6
26,68:6
26,69:23
26,70:23
27,30:15
27,31:2
27,32:2
27,41:13
27,57:6
27,58:6
27,59:6
27,68:6
27,69:23
27,70:23
28,30:15
28,31:2
28,32:2
28,41:13
28,57:6
28,58:6
28,59:6
28,68:6
28,69:23
28,70:23
29,30:15
29,31:2
29,32:2
29,41:13
29,57:6
29,58:6
29,59:6
29,68:6
29,69:23
29,70:23
30,1:20
30,2:20
30,3:20
30,4:20
30,6:20
30,7:20
30,9:20
30,13:28
30,14:28
30,15:20
30,18:28
30,19:28
30,20:13
30,21:13
30,22:13
30,23:13
30,25:13
30,26:15
30,27:15
30,28:15
30,29:15
30,31:13
30,33:15
30,34:15
30,41:28
30,57:21
30,58:21
30,59:21
30,68:21
30,69:38
30,70:38
31,24:13
31,26:2
31,27:2
31,28:2
31,29:2
31,33:2
31,34:2
31,41:15
31,57:8
31,58:8
31,59:8
31,68:8
31,69:25
31,70:25
32,24:13
32,26:2
32,27:2
32,28:2
32,29:2
32,33:2
32,34:2
32,35:2
32,41:15
32,57:8
32,58:8
32,59:8
32,68:8
32,69:25
32,70:25
33,24:15
33,25:2
33,30:15
33,31:2
33,32:2
33,41:13
33,57:6
33,58:6
33,59:6
33,68:6
33,69:23
33,70:23
34,24:15
34,25:2
34,30:15
34,31:2
34,32:2
34,41:13
34,57:6
34,58:6
34,59:6
34,68:6
34,69:23
34,70:23
35,36:6
35,41:13
35,48:6
35,53:16
35,56:23
35,57:6
35,58:6
35,59:6
35,60:23
35,61:23
35,68:6
35,69:23
35,70:23
36,41:7
36,44:6
36,45:10
36,46:10
36,51:6
36,52:10
36,53:10
36,54:10
36,55:17
36,56:17
36,60:17
36,61:17
36,62:6
36,63:10
36,65:17
36,66:17
36,67:17
36,69:17
36,70:17
37,41:7
37,44:6
37,45:10
37,46:10
37,51:6
37,52:10
37,53:10
37,54:10
37,55:17
37,56:17
37,60:17
37,61:17
37,62:6
37,63:10
37,65:17
37,66:17
37,67:17
37,69:17
37,70:17
38,41:7
38,44:6
38,45:10
38,46:10
38,51:6
38,52:10
38,53:10
38,54:10
38,55:17
38,56:17
38,60:17
38,61:17
38,62:6
38,63:10
38,65:17
38,66:17
38,67:17
38,69:17
38,70:17
39,41:7
39,44:6
39,45:10
39,46:10
39,51:6
39,52:10
39,53:10
39,54:10
39,55:17
39,56:17
39,60:17
39,61:17
39,62:6
39,63:10
39,65:17
39,66:17
39,67:17
39,69:17
39,70:17
40,41:7
40,44:6
40,45:10
40,46:10
40,51:6
40,52:10
40,53:10
40,54:10
40,55:17
40,56:17
40,60:17
40,61:17
40,62:6
40,63:10
40,65:17
40,66:17
40,67:17
40,69:17
40,70:17
41,2:8
41,3:8
41,4:8
41,5:8
41,6:8
41,7:8
41,8:28
41,9:8
41,10:28
41,11:28
41,12:28
41,15:8
41,16:28
41,17:28
41,20:15
41,21:15
41,22:15
41,23:15
41,24:28
41,25:15
41,26:13
41,27:13
41,28:13
41,29:13
41,30:28
41,31:15
41,32:15
41,33:13
41,34:13
41,35:13
41,36:7
41,37:7
41,38:7
41,39:7
41,40:7
41,42:7
41,44:13
41,45:3
41,46:3
41,47:7
41,48:7
41,49:7
41,51:13
41,52:3
41,53:3
41,54:3
41,55:10
41,56:10
41,57:7
41,58:7
41,59:7
41,60:10
41,61:10
41,62:13
41,63:3
41,64:7
41,65:10
41,66:10
41,67:10
41,68:7
41,69:10
41,70:10
42,44:6
42,45:10
42,46:10
42,51:6
42,52:10
42,53:10
42,54:10
42,55:17
42,56:17
42,60:17
42,61:17
42,62:6
42,63:10
42,65:17
42,66:17
42,67:17
42,69:17
42,70:17
43,44:6
43,45:10
43,46:10
43,50:17
43,51:6
43,52:10
43,53:10
43,54:10
43,55:17
43,56:17
43,60:17
43,61:17
43,62:6
43,63:10
43,65:17
43,66:17
43,67:17
43,69:17
43,70:17
44,36:6
44,37:6
44,38:6
44,39:6
44,40:6
44,41:13
44,42:6
44,43:6
44,45:16
44,48:6
44,49:6
44,52:16
44,53:16
44,54:16
44,55:23
44,56:23
44,57:6
44,58:6
44,59:6
44,60:23
44,61:23
44,63:16
44,64:6
44,65:23
44,66:23
44,67:23
44,68:6
44,69:23
44,70:23
45,36:10
45,37:10
45,38:10
45,39:10
45,40:10
45,41:3
45,42:10
45,43:10
45,48:10
45,49:10
45,51:16
45,55:7
45,56:7
45,57:10
45,58:10
45,59:10
45,60:7
45,61:7
45,62:16
45,64:10
45,65:7
45,66:7
45,67:7
45,68:10
45,69:7
45,70:7
46,36:10
46,37:10
46,38:10
46,39:10
46,40:10
46,41:3
46,42:10
46,43:10
46,47:10
46,48:10
46,49:10
46,51:16
46,55:7
46,56:7
46,57:10
46,58:10
46,59:10
46,60:7
46,61:7
46,62:16
46,64:10
46,65:7
46,66:7
46,67:7
46,68:10
46,69:7
46,70:7
47,41:7
47,50:17
47,51:6
47,52:10
47,53:10
47,54:10
47,55:17
47,56:17
47,60:17
47,61:17
47,62:6
47,63:10
47,65:17
47,66:17
47,67:17
47,69:17
47,70:17
48,41:7
48,44:6
48,45:10
48,46:10
48,51:6
48,52:10
48,53:10
48,54:10
48,55:17
48,56:17
48,60:17
48,61:17
48,62:6
48,63:10
48,65:17
48,66:17
48,67:17
48,69:17
48,70:17
49,41:7
49,44:6
49,45:10
49,46:10
49,50:17
49,51:6
49,52:10
49,53:10
49,54:10
49,55:17
49,56:17
49,60:17
49,61:17
49,62:6
49,63:10
49,65:17
49,66:17
49,67:17
49,69:17
49,70:17
50,51:23
50,52:7
50,53:7
50,54:7
50,57:17
50,58:17
50,59:17
50,62:23
50,63:7
50,64:17
50,68:17
51,36:6
51,37:6
51,38:6
51,39:6
51,40:6
51,41:13
51,42:6
51,43:6
51,45:16
51,46:16
51,47:6
51,48:6
51,49:6
51,50:23
51,52:16
51,53:16
51,56:23
51,57:6
51,58:6
51,59:6
51,60:23
51,61:23
51,63:16
51,64:6
51,65:23
51,66:23
51,67:23
51,68:6
51,69:23
51,70:23
52,36:10
52,37:10
52,38:10
52,39:10
52,40:10
52,41:3
52,42:10
52,43:10
52,44:16
52,47:10
52,48:10
52,49:10
52,50:7
52,56:7
52,57:10
52,58:10
52,59:10
52,60:7
52,61:7
52,62:16
52,64:10
52,65:7
52,66:7
52,67:7
52,68:10
52,69:7
52,70:7
53,36:10
53,37:10
53,38:10
53,39:10
53,40:10
53,41:3
53,42:10
53,43:10
53,44:16
53,47:10
53,48:10
53,49:10
53,50:7
53,51:16
53,56:7
53,57:10
53,58:10
53,59:10
53,60:7
53,61:7
53,62:16
53,64:10
53,65:7
53,66:7
53,67:7
53,68:10
53,69:7
53,70:7
54,36:10
54,37:10
54,38:10
54,39:10
54,40:10
54,41:3
54,42:10
54,43:10
54,44:16
54,47:10
54,48:10
54,49:10
54,50:7
54,55:7
54,56:7
54,57:10
54,58:10
54,59:10
54,60:7
54,61:7
54,62:16
54,64:10
54,65:7
54,66:7
54,67:7
54,68:10
54,69:7
54,70:7
55,36:17
55,37:17
55,38:17
55,39:17
55,40:17
55,41:10
55,42:17
55,43:17
55,44:23
55,45:7
55,46:7
55,47:17
55,48:17
55,49:17
55,57:17
55,58:17
55,59:17
55,62:23
55,63:7
55,64:17
55,68:17
56,36:17
56,37:17
56,38:17
56,39:17
56,40:17
56,41:10
56,42:17
56,43:17
56,44:23
56,45:7
56,46:7
56,47:17
56,48:17
56,49:17
56,51:23
56,52:7
56,53:7
56,54:7
56,57:17
56,58:17
56,59:17
56,62:23
56,63:7
56,64:17
56,68:17
57,1:1
57,2:1
57,3:1
57,4:1
57,5:1
57,6:1
57,7:1
57,8:21
57,9:1
57,10:21
57,11:21
57,12:21
57,13:7
57,14:7
57,20:8
57,21:8
57,22:8
57,23:8
57,24:21
57,25:8
57,26:6
57,27:6
57,28:6
57,29:6
57,30:21
57,31:8
57,32:8
57,33:6
57,34:6
57,35:6
57,41:7
57,44:6
57,45:10
57,46:10
57,50:17
57,51:6
57,52:10
57,53:10
57,54:10
57,55:17
57,56:17
57,61:17
57,62:6
57,63:10
57,65:17
57,66:17
57,67:17
57,69:17
57,70:17
58,1:1
58,2:1
58,3:1
58,4:1
58,5:1
58,6:1
58,7:1
58,8:21
58,9:1
58,10:21
58,11:21
58,12:21
58,13:7
58,14:7
58,20:8
58,21:8
58,22:8
58,23:8
58,24:21
58,25:8
58,26:6
58,27:6
58,28:6
58,29:6
58,30:21
58,31:8
58,32:8
58,33:6
58,34:6
58,35:6
58,41:7
58,44:6
58,45:10
58,46:10
58,50:17
58,51:6
58,52:10
58,53:10
58,54:10
58,55:17
58,56:17
58,61:17
58,62:6
58,63:10
58,65:17
58,66:17
58,67:17
58,69:17
58,70:17
59,1:1
59,2:1
59,3:1
59,4:1
59,5:1
59,6:1
59,7:1
59,8:21
59,9:1
59,10:21
59,11:21
59,12:21
59,13:7
59,14:7
59,20:8
59,21:8
59,22:8
59,23:8
59,24:21
59,25:8
59,26:6
59,27:6
59,28:6
59,29:6
59,30:21
59,31:8
59,32:8
59,33:6
59,34:6
59,35:6
59,41:7
59,44:6
59,45:10
59,46:10
59,50:17
59,51:6
59,52:10
59,53:10
59,54:10
59,55:17
59,56:17
59,60:17
59,61:17
59,62:6
59,63:10
59,65:17
59,66:17
59,67:17
59,69:17
59,70:17
60,36:17
60,37:17
60,38:17
60,39:17
60,40:17
60,41:10
60,42:17
60,43:17
60,44:23
60,45:7
60,46:7
60,47:17
60,48:17
60,49:17
60,51:23
60,52:7
60,53:7
60,54:7
60,62:23
60,63:7
60,64:17
60,68:17
61,36:17
61,37:17
61,38:17
61,39:17
61,40:17
61,41:10
61,42:17
61,43:17
61,44:23
61,45:7
61,46:7
61,47:17
61,48:17
61,49:17
61,51:23
61,52:7
61,53:7
61,54:7
61,57:17
61,58:17
61,59:17
61,62:23
61,63:7
61,64:17
61,68:17
62,36:6
62,37:6
62,38:6
62,39:6
62,40:6
62,41:13
62,42:6
62,43:6
62,45:16
62,46:16
62,47:6
62,48:6
62,49:6
62,50:23
62,52:16
62,53:16
62,54:16
62,55:23
62,56:23
62,57:6
62,58:6
62,59:6
62,60:23
62,61:23
62,63:16
62,68:6
62,69:23
62,70:23
63,36:10
63,37:10
63,38:10
63,39:10
63,40:10
63,41:3
63,42:10
63,43:10
63,44:16
63,47:10
63,48:10
63,49:10
63,50:7
63,51:16
63,55:7
63,56:7
63,57:10
63,58:10
63,59:10
63,60:7
63,61:7
63,64:10
63,68:10
63,69:7
63,70:7
64,41:7
64,44:6
64,45:10
64,46:10
64,50:17
64,51:6
64,52:10
64,53:10
64,54:10
64,55:17
64,56:17
64,60:17
64,61:17
64,65:17
64,66:17
64,67:17
64,69:17
64,70:17
65,36:17
65,37:17
65,38:17
65,39:17
65,40:17
65,41:10
65,42:17
65,43:17
65,44:23
65,45:7
65,46:7
65,47:17
65,48:17
65,49:17
65,51:23
65,52:7
65,53:7
65,54:7
65,57:17
65,58:17
65,59:17
65,68:17
66,36:17
66,37:17
66,38:17
66,39:17
66,40:17
66,41:10
66,42:17
66,43:17
66,44:23
66,45:7
66,46:7
66,47:17
66,48:17
66,49:17
66,51:23
66,52:7
66,53:7
66,54:7
66,57:17
66,58:17
66,59:17
66,68:17
67,36:17
67,37:17
67,38:17
67,39:17
67,40:17
67,41:10
67,42:17
67,43:17
67,44:23
67,45:7
67,46:7
67,47:17
67,48:17
67,49:17
67,51:23
67,52:7
67,53:7
67,54:7
67,57:17
67,58:17
67,59:17
67,68:17
68,4:1
68,5:1
68,6:1
68,7:1
68,8:21
68,9:1
68,10:21
68,11:21
68,12:21
68,13:7
68,14:7
68,15:1
68,16:21
68,17:21
68,18:7
68,19:7
68,20:8
68,21:8
68,22:8
68,23:8
68,24:21
68,25:8
68,26:6
68,27:6
68,28:6
68,29:6
68,30:21
68,31:8
68,32:8
68,33:6
68,34:6
68,35:6
68,41:7
68,44:6
68,45:10
68,46:10
68,50:17
68,51:6
68,52:10
68,53:10
68,54:10
68,55:17
68,56:17
68,60:17
68,61:17
68,62:6
68,63:10
68,65:17
68,66:17
68,67:17
68,69:17
68,70:17
69,2:18
69,3:18
69,4:18
69,5:18
69,6:18
69,7:18
69,8:38
69,9:18
69,10:38
69,11:38
69,12:38
69,13:10
69,14:10
69,15:18
69,16:38
69,17:38
69,18:10
69,19:10
69,20:25
69,21:25
69,22:25
69,23:25
69,24:38
69,25:25
69,26:23
69,27:23
69,28:23
69,29:23
69,30:38
69,31:25
69,32:25
69,33:23
69,34:23
69,35:23
69,36:17
69,37:17
69,38:17
69,39:17
69,40:17
69,41:10
69,42:17
69,43:17
69,44:23
69,45:7
69,46:7
69,47:17
69,48:17
69,49:17
69,51:23
69,52:7
69,53:7
69,54:7
69,57:17
69,58:17
69,59:17
69,62:23
69,63:7
69,64:17
69,68:17
70,2:18
70,3:18
70,4:18
70,5:18
70,6:18
70,7:18
70,8:38
70,9:18
70,10:38
70,11:38
70,12:38
70,13:10
70,14:10
70,15:18
70,16:38
70,17:38
70,18:10
70,19:10
70,20:25
70,21:25
70,22:25
70,23:25
70,24:38
70,25:25
70,26:23
70,27:23
70,28:23
70,29:23
70,30:38
70,31:25
70,32:25
70,33:23
70,34:23
70,35:23
70,36:17
70,37:17
70,38:17
70,39:17
70,40:17
70,41:10
70,42:17
70,43:17
70,44:23
70,45:7
70,46:7
70,47:17
70,48:17
70,49:17
70,51:23
70,52:7
70,53:7
70,54:7
70,57:17
70,58:17
70,59:17
70,62:23
70,63:7
70,64:17
70,68:17

<setup times backward>
1,1:1
1,5:1
1,9:1
1,15:1
1,18:9
1,19:9
1,57:2
1,58:2
1,59:2
2,1:1
2,2:1
2,5:1
2,9:1
2,15:1
2,18:9
2,19:9
2,41:9
2,57:2
2,58:2
2,59:2
2,69:19
2,70:19
3,1:1
3,2:1
3,3:1
3,5:1
3,9:1
3,15:1
3,18:9
3,19:9
3,41:9
3,57:2
3,58:2
3,59:2
3,69:19
3,70:19
4,1:1
4,2:1
4,3:1
4,4:1
4,5:1
4,9:1
4,15:1
4,18:9
4,19:9
4,41:9
4,57:2
4,58:2
4,59:2
4,68:2
4,69:19
4,70:19
5,1:1
5,2:1
5,3:1
5,4:1
5,5:1
5,7:1
5,9:1
5,15:1
5,18:9
5,19:9
5,41:9
5,57:2
5,58:2
5,59:2
5,68:2
5,69:19
5,70:19
6,1:1
6,2:1
6,3:1
6,4:1
6,5:1
6,6:1
6,7:1
6,9:1
6,15:1
6,18:9
6,19:9
6,41:9
6,57:2
6,58:2
6,59:2
6,68:2
6,69:19
6,70:19
7,1:1
7,2:1
7,3:1
7,4:1
7,5:1
7,6:1
7,7:1
7,9:1
7,15:1
7,18:9
7,19:9
7,41:9
7,57:2
7,58:2
7,59:2
7,68:2
7,69:19
7,70:19
8,1:21
8,2:21
8,3:21
8,4:21
8,5:21
8,6:21
8,7:21
8,8:1
8,9:21
8,10:1
8,11:1
8,15:21
8,16:1
8,17:1
8,18:29
8,19:29
8,20:14
8,21:14
8,22:14
8,24:1
8,30:1
8,41:29
8,57:22
8,58:22
8,59:22
8,68:22
8,69:39
8,70:39
9,1:1
9,2:1
9,3:1
9,4:1
9,5:1
9,6:1
9,7:1
9,9:1
9,15:1
9,18:9
9,19:9
9,41:9
9,57:2
9,58:2
9,59:2
9,68:2
9,69:19
9,70:19
10,1:21
10,2:21
10,3:21
10,4:21
10,5:21
10,6:21
10,7:21
10,8:1
10,9:21
10,10:1
10,15:21
10,16:1
10,17:1
10,18:29
10,19:29
10,20:14
10,21:14
10,22:14
10,24:1
10,30:1
10,41:29
10,57:22
10,58:22
10,59:22
10,68:22
10,69:39
10,70:39
11,1:21
11,2:21
11,3:21
11,4:21
11,5:21
11,6:21
11,7:21
11,8:1
11,9:21
11,10:1
11,11:1
11,15:21
11,16:1
11,17:1
11,18:29
11,19:29
11,20:14
11,21:14
11,22:14
11,24:1
11,30:1
11,41:29
11,57:22
11,58:22
11,59:22
11,68:22
11,69:39
11,70:39
12,1:21
12,2:21
12,3:21
12,4:21
12,5:21
12,6:21
12,7:21
12,8:1
12,9:21
12,10:1
12,11:1
12,12:1
12,15:21
12,16:1
12,17:1
12,18:29
12,19:29
12,20:14
12,21:14
12,22:14
12,24:1
12,30:1
12,41:29
12,57:22
12,58:22
12,59:22
12,68:22
12,69:39
12,70:39
13,13:1
13,14:1
13,18:1
13,19:1
13,41:1
13,69:11
13,70:11
14,13:1
14,14:1
14,18:1
14,19:1
14,41:1
14,69:11
14,70:11
15,1:1
15,2:1
15,3:1
15,4:1
15,5:1
15,6:1
15,7:1
15,9:1
15,13:9
15,14:9
15,15:1
15,41:9
15,68:2
15,69:19
15,70:19
16,1:21
16,2:21
16,3:21
16,4:21
16,5:21
16,6:21
16,7:21
16,8:1
16,9:21
16,10:1
16,11:1
16,12:1
16,13:29
16,14:29
16,15:21
16,16:1
16,24:1
16,30:1
16,41:29
16,68:22
16,69:39
16,70:39
17,1:21
17,2:21
17,3:21
17,4:21
17,5:21
17,6:21
17,7:21
17,8:1
17,9:21
17,10:1
17,11:1
17,12:1
17,13:29
17,14:29
17,15:21
17,16:1
17,17:1
17,18:29
17,24:1
17,30:1
17,41:29
17,68:22
17,69:39
17,70:39
18,13:1
18,14:1
18,18:1
18,41:1
18,69:11
18,70:11
19,13:1
19,14:1
19,18:1
19,19:1
19,41:1
19,69:11
19,70:11
20,1:8
20,2:8
20,3:8
20,4:8
20,5:8
20,6:8
20,7:8
20,9:8
20,13:16
20,14:16
20,15:8
20,18:16
20,19:16
20,20:1
20,22:1
20,41:16
20,57:9
20,58:9
20,59:9
20,68:9
20,69:26
20,70:26
21,1:8
21,2:8
21,3:8
21,4:8
21,5:8
21,6:8
21,7:8
21,9:8
21,13:16
21,14:16
21,15:8
21,18:16
21,19:16
21,20:1
21,21:1
21,22:1
21,41:16
21,57:9
21,58:9
21,59:9
21,68:9
21,69:26
21,70:26
22,1:8
22,2:8
22,3:8
22,4:8
22,5:8
22,6:8
22,7:8
22,9:8
22,13:16
22,14:16
22,15:8
22,18:16
22,19:16
22,20:1
22,21:1
22,22:1
22,41:16
22,57:9
22,58:9
22,59:9
22,68:9
22,69:26
22,70:26
23,1:8
23,2:8
23,3:8
23,4:8
23,5:8
23,6:8
23,7:8
23,9:8
23,13:16
23,14:16
23,15:8
23,18:16
23,19:16
23,20:1
23,21:1
23,22:1
23,23:1
23,41:16
23,57:9
23,58:9
23,59:9
23,68:9
23,69:26
23,70:26
24,1:21
24,2:21
24,3:21
24,4:21
24,5:21
24,6:21
24,7:21
24,8:1
24,9:21
24,10:1
24,11:1
24,12:1
24,13:29
24,14:29
24,15:21
24,16:1
24,17:1
24,18:29
24,19:29
24,20:14
24,21:14
24,22:14
24,23:14
24,24:1
24,30:1
24,31:14
24,32:14
24,33:16
24,34:16
24,41:29
24,57:22
24,58:22
24,59:22
24,68:22
24,69:39
24,70:39
25,1:8
25,2:8
25,3:8
25,4:8
25,5:8
25,6:8
25,7:8
25,9:8
25,13:16
25,14:16
25,15:8
25,18:16
25,19:16
25,20:1
25,21:1
25,22:1
25,23:1
25,25:1
25,31:1
25,32:1
25,33:3
25,34:3
25,41:16
25,57:9
25,58:9
25,59:9
25,68:9
25,69:26
25,70:26
26,1:6
26,2:6
26,3:6
26,4:6
26,5:6
26,6:6
26,7:6
26,9:6
26,13:14
26,14:14
26,15:6
26,18:14
26,19:14
26,26:1
26,27:1
26,28:1
26,29:1
26,33:1
26,34:1
26,41:14
26,57:7
26,58:7
26,59:7
26,68:7
26,69:24
26,70:24
27,1:6
27,2:6
27,3:6
27,4:6
27,5:6
27,6:6
27,7:6
27,9:6
27,13:14
27,14:14
27,15:6
27,18:14
27,19:14
27,26:1
27,27:1
27,28:1
27,29:1
27,33:1
27,34:1
27,41:14
27,57:7
27,58:7
27,59:7
27,68:7
27,69:24
27,70:24
28,1:6
28,2:6
28,3:6
28,4:6
28,5:6
28,6:6
28,7:6
28,9:6
28,13:14
28,14:14
28,15:6
28,18:14
28,19:14
28,26:1
28,27:1
28,28:1
28,29:1
28,33:1
28,34:1
28,41:14
28,57:7
28,58:7
28,59:7
28,68:7
28,69:24
28,70:24
29,1:6
29,2:6
29,3:6
29,4:6
29,5:6
29,6:6
29,7:6
29,9:6
29,13:14
29,14:14
29,15:6
29,18:14
29,19:14
29,26:1
29,27:1
29,28:1
29,29:1
29,33:1
29,34:1
29,41:14
29,57:7
29,58:7
29,59:7
29,68:7
29,69:24
29,70:24
30,1:21
30,2:21
30,3:21
30,4:21
30,5:21
30,6:21
30,7:21
30,8:1
30,9:21
30,10:1
30,11:1
30,12:1
30,13:29
30,14:29
30,15:21
30,16:1
30,17:1
30,18:29
30,19:29
30,20:14
30,21:14
30,22:14
30,23:14
30,24:1
30,25:14
30,26:16
30,27:16
30,28:16
30,29:16
30,30:1
30,33:16
30,34:16
30,41:29
30,57:22
30,58:22
30,59:22
30,68:22
30,69:39
30,70:39
31,1:8
31,2:8
31,3:8
31,4:8
31,5:8
31,6:8
31,7:8
31,9:8
31,13:16
31,14:16
31,15:8
31,18:16
31,19:16
31,20:1
31,21:1
31,22:1
31,23:1
31,25:1
31,26:3
31,27:3
31,28:3
31,29:3
31,31:1
31,33:3
31,34:3
31,41:16
31,57:9
31,58:9
31,59:9
31,68:9
31,69:26
31,70:26
32,1:8
32,2:8
32,3:8
32,4:8
32,5:8
32,6:8
32,7:8
32,9:8
32,13:16
32,14:16
32,15:8
32,18:16
32,19:16
32,20:1
32,21:1
32,22:1
32,23:1
32,25:1
32,26:3
32,27:3
32,28:3
32,29:3
32,31:1
32,32:1
32,33:3
32,34:3
32,41:16
32,57:9
32,58:9
32,59:9
32,68:9
32,69:26
32,70:26
33,1:6
33,2:6
33,3:6
33,4:6
33,5:6
33,6:6
33,7:6
33,9:6
33,13:14
33,14:14
33,15:6
33,18:14
33,19:14
33,26:1
33,27:1
33,28:1
33,29:1
33,33:1
33,41:14
33,57:7
33,58:7
33,59:7
33,68:7
33,69:24
33,70:24
34,1:6
34,2:6
34,3:6
34,4:6
34,5:6
34,6:6
34,7:6
34,9:6
34,13:14
34,14:14
34,15:6
34,18:14
34,19:14
34,26:1
34,27:1
34,28:1
34,29:1
34,33:1
34,34:1
34,41:14
34,57:7
34,58:7
34,59:7
34,68:7
34,69:24
34,70:24
35,1:6
35,2:6
35,3:6
35,4:6
35,5:6
35,6:6
35,7:6
35,9:6
35,13:14
35,14:14
35,15:6
35,18:14
35,19:14
35,26:1
35,27:1
35,28:1
35,29:1
35,33:1
35,34:1
35,35:1
35,41:14
35,57:7
35,58:7
35,59:7
35,68:7
35,69:24
35,70:24
36,13:8
36,14:8
36,18:8
36,19:8
36,36:1
36,41:8
36,45:11
36,46:11
36,47:1
36,48:1
36,49:1
36,52:11
36,53:11
36,54:11
36,55:18
36,56:18
36,57:1
36,58:1
36,59:1
36,60:18
36,61:18
36,63:11
36,64:1
36,65:18
36,66:18
36,67:18
36,68:1
36,69:18
36,70:18
37,13:8
37,14:8
37,18:8
37,19:8
37,36:1
37,37:1
37,41:8
37,45:11
37,46:11
37,47:1
37,48:1
37,49:1
37,52:11
37,53:11
37,54:11
37,55:18
37,56:18
37,57:1
37,58:1
37,59:1
37,60:18
37,61:18
37,63:11
37,64:1
37,65:18
37,66:18
37,67:18
37,68:1
37,69:18
37,70:18
38,13:8
38,14:8
38,18:8
38,19:8
38,36:1
38,37:1
38,38:1
38,41:8
38,45:11
38,46:11
38,47:1
38,48:1
38,49:1
38,52:11
38,53:11
38,54:11
38,55:18
38,56:18
38,57:1
38,58:1
38,59:1
38,60:18
38,61:18
38,63:11
38,64:1
38,65:18
38,66:18
38,67:18
38,68:1
38,69:18
38,70:18
39,13:8
39,14:8
39,18:8
39,19:8
39,36:1
39,37:1
39,38:1
39,39:1
39,41:8
39,45:11
39,46:11
39,47:1
39,48:1
39,49:1
39,52:11
39,53:11
39,54:11
39,55:18
39,56:18
39,57:1
39,58:1
39,59:1
39,60:18
39,61:18
39,63:11
39,64:1
39,65:18
39,66:18
39,67:18
39,68:1
39,69:18
39,70:18
40,13:8
40,14:8
40,18:8
40,19:8
40,36:1
40,37:1
40,38:1
40,39:1
40,40:1
40,41:8
40,45:11
40,46:11
40,47:1
40,48:1
40,49:1
40,52:11
40,53:11
40,54:11
40,55:18
40,56:18
40,57:1
40,58:1
40,59:1
40,60:18
40,61:18
40,63:11
40,64:1
40,65:18
40,66:18
40,67:18
40,68:1
40,69:18
40,70:18
41,13:1
41,14:1
41,18:1
41,19:1
41,41:1
41,45:4
41,46:4
41,52:4
41,53:4
41,54:4
41,55:11
41,56:11
41,60:11
41,61:11
41,63:4
41,65:11
41,66:11
41,67:11
41,69:11
41,70:11
42,13:8
42,14:8
42,18:8
42,19:8
42,36:1
42,37:1
42,38:1
42,39:1
42,40:1
42,41:8
42,42:1
42,45:11
42,46:11
42,47:1
42,48:1
42,49:1
42,52:11
42,53:11
42,54:11
42,55:18
42,56:18
42,57:1
42,58:1
42,59:1
42,60:18
42,61:18
42,63:11
42,64:1
42,65:18
42,66:18
42,67:18
42,68:1
42,69:18
42,70:18
43,13:8
43,14:8
43,18:8
43,19:8
43,36:1
43,37:1
43,38:1
43,39:1
43,40:1
43,41:8
43,42:1
43,43:1
43,45:11
43,46:11
43,47:1
43,48:1
43,49:1
43,52:11
43,53:11
43,54:11
43,55:18
43,56:18
43,57:1
43,58:1
43,59:1
43,60:18
43,61:18
43,63:11
43,64:1
43,65:18
43,66:18
43,67:18
43,68:1
43,69:18
43,70:18
44,1:6
44,2:6
44,3:6
44,4:6
44,5:6
44,6:6
44,7:6
44,9:6
44,13:14
44,14:14
44,15:6
44,18:14
44,19:14
44,26:1
44,27:1
44,28:1
44,29:1
44,33:1
44,34:1
44,35:1
44,36:7
44,37:7
44,38:7
44,39:7
44,40:7
44,41:14
44,42:7
44,43:7
44,44:1
44,48:7
44,49:7
44,51:1
44,52:17
44,53:17
44,54:17
44,55:24
44,56:24
44,57:7
44,58:7
44,59:7
44,60:24
44,61:24
44,62:1
44,63:17
44,64:7
44,65:24
44,66:24
44,67:24
44,68:7
44,69:24
44,70:24
45,45:1
45,52:1
45,53:1
45,54:1
45,55:8
45,56:8
45,60:8
45,61:8
45,63:1
45,65:8
45,66:8
45,67:8
45,69:8
45,70:8
46,45:1
46,46:1
46,52:1
46,53:1
46,54:1
46,55:8
46,56:8
46,60:8
46,61:8
46,63:1
46,65:8
46,66:8
46,67:8
46,69:8
46,70:8
47,13:8
47,14:8
47,18:8
47,19:8
47,36:1
47,37:1
47,38:1
47,39:1
47,40:1
47,41:8
47,42:1
47,43:1
47,45:11
47,46:11
47,47:1
47,48:1
47,49:1
47,52:11
47,53:11
47,54:11
47,55:18
47,56:18
47,57:1
47,58:1
47,59:1
47,60:18
47,61:18
47,63:11
47,64:1
47,65:18
47,66:18
47,67:18
47,68:1
47,69:18
47,70:18
48,13:8
48,14:8
48,18:8
48,19:8
48,36:1
48,37:1
48,38:1
48,39:1
48,40:1
48,41:8
48,42:1
48,43:1
48,45:11
48,46:11
48,47:1
48,48:1
48,52:11
48,53:11
48,54:11
48,55:18
48,56:18
48,57:1
48,58:1
48,59:1
48,60:18
48,61:18
48,63:11
48,64:1
48,65:18
48,66:18
48,67:18
48,68:1
48,69:18
48,70:18
49,13:8
49,14:8
49,18:8
49,19:8
49,36:1
49,37:1
49,38:1
49,39:1
49,40:1
49,41:8
49,42:1
49,43:1
49,45:11
49,46:11
49,47:1
49,48:1
49,49:1
49,52:11
49,53:11
49,54:11
49,55:18
49,56:18
49,57:1
49,58:1
49,59:1
49,60:18
49,61:18
49,63:11
49,64:1
49,65:18
49,66:18
49,67:18
49,68:1
49,69:18
49,70:18
50,50:1
50,55:1
50,56:1
50,60:1
50,61:1
50,65:1
50,66:1
50,67:1
50,69:1
50,70:1
51,1:6
51,2:6
51,3:6
51,4:6
51,5:6
51,6:6
51,7:6
51,9:6
51,13:14
51,14:14
51,15:6
51,18:14
51,19:14
51,26:1
51,27:1
51,28:1
51,29:1
51,33:1
51,34:1
51,35:1
51,36:7
51,37:7
51,38:7
51,39:7
51,40:7
51,41:14
51,42:7
51,43:7
51,44:1
51,45:17
51,46:17
51,47:7
51,48:7
51,49:7
51,50:24
51,51:1
51,53:17
51,56:24
51,57:7
51,58:7
51,59:7
51,60:24
51,61:24
51,62:1
51,63:17
51,64:7
51,65:24
51,66:24
51,67:24
51,68:7
51,69:24
51,70:24
52,45:1
52,46:1
52,50:8
52,52:1
52,53:1
52,56:8
52,60:8
52,61:8
52,63:1
52,65:8
52,66:8
52,67:8
52,69:8
52,70:8
53,45:1
53,46:1
53,50:8
53,52:1
53,53:1
53,56:8
53,60:8
53,61:8
53,63:1
53,65:8
53,66:8
53,67:8
53,69:8
53,70:8
54,45:1
54,46:1
54,50:8
54,52:1
54,53:1
54,54:1
54,56:8
54,60:8
54,61:8
54,63:1
54,65:8
54,66:8
54,67:8
54,69:8
54,70:8
55,50:1
55,55:1
55,56:1
55,60:1
55,61:1
55,65:1
55,66:1
55,67:1
55,69:1
55,70:1
56,50:1
56,55:1
56,56:1
56,60:1
56,61:1
56,65:1
56,66:1
56,67:1
56,69:1
56,70:1
57,13:8
57,14:8
57,18:8
57,19:8
57,36:1
57,37:1
57,38:1
57,39:1
57,40:1
57,41:8
57,42:1
57,43:1
57,45:11
57,46:11
57,47:1
57,48:1
57,49:1
57,50:18
57,52:11
57,53:11
57,54:11
57,55:18
57,56:18
57,57:1
57,61:18
57,63:11
57,64:1
57,65:18
57,66:18
57,67:18
57,68:1
57,69:18
57,70:18
58,13:8
58,14:8
58,18:8
58,19:8
58,36:1
58,37:1
58,38:1
58,39:1
58,40:1
58,41:8
58,42:1
58,43:1
58,45:11
58,46:11
58,47:1
58,48:1
58,49:1
58,50:18
58,52:11
58,53:11
58,54:11
58,55:18
58,56:18
58,57:1
58,58:1
58,61:18
58,63:11
58,64:1
58,65:18
58,66:18
58,67:18
58,68:1
58,69:18
58,70:18
59,13:8
59,14:8
59,18:8
59,19:8
59,36:1
59,37:1
59,38:1
59,39:1
59,40:1
59,41:8
59,42:1
59,43:1
59,45:11
59,46:11
59,47:1
59,48:1
59,49:1
59,50:18
59,52:11
59,53:11
59,54:11
59,55:18
59,56:18
59,57:1
59,58:1
59,59:1
59,61:18
59,63:11
59,64:1
59,65:18
59,66:18
59,67:18
59,68:1
59,69:18
59,70:18
60,50:1
60,55:1
60,56:1
60,60:1
60,61:1
60,65:1
60,66:1
60,67:1
60,69:1
60,70:1
61,50:1
61,55:1
61,56:1
61,60:1
61,61:1
61,66:1
61,67:1
61,69:1
61,70:1
62,1:6
62,2:6
62,3:6
62,4:6
62,5:6
62,6:6
62,7:6
62,9:6
62,13:14
62,14:14
62,15:6
62,18:14
62,19:14
62,26:1
62,27:1
62,28:1
62,29:1
62,33:1
62,34:1
62,35:1
62,36:7
62,37:7
62,38:7
62,39:7
62,40:7
62,41:14
62,42:7
62,43:7
62,44:1
62,45:17
62,46:17
62,47:7
62,48:7
62,49:7
62,50:24
62,51:1
62,52:17
62,53:17
62,54:17
62,55:24
62,56:24
62,57:7
62,58:7
62,59:7
62,60:24
62,61:24
62,62:1
62,68:7
62,69:24
62,70:24
63,45:1
63,46:1
63,50:8
63,52:1
63,53:1
63,54:1
63,55:8
63,56:8
63,60:8
63,61:8
63,63:1
63,69:8
63,70:8
64,13:8
64,14:8
64,18:8
64,19:8
64,36:1
64,37:1
64,38:1
64,39:1
64,40:1
64,41:8
64,42:1
64,43:1
64,45:11
64,46:11
64,47:1
64,48:1
64,49:1
64,50:18
64,52:11
64,53:11
64,54:11
64,55:18
64,56:18
64,57:1
64,58:1
64,59:1
64,60:18
64,61:18
64,63:11
64,64:1
64,68:1
64,69:18
64,70:18
65,50:1
65,55:1
65,56:1
65,60:1
65,61:1
65,65:1
65,66:1
65,67:1
65,69:1
65,70:1
66,50:1
66,55:1
66,56:1
66,60:1
66,61:1
66,65:1
66,66:1
66,67:1
66,69:1
66,70:1
67,50:1
67,55:1
67,56:1
67,60:1
67,61:1
67,65:1
67,66:1
67,67:1
67,69:1
67,70:1
68,13:8
68,14:8
68,18:8
68,19:8
68,36:1
68,37:1
68,38:1
68,39:1
68,40:1
68,41:8
68,42:1
68,43:1
68,45:11
68,46:11
68,47:1
68,48:1
68,49:1
68,50:18
68,52:11
68,53:11
68,54:11
68,55:18
68,56:18
68,57:1
68,58:1
68,59:1
68,60:18
68,61:18
68,63:11
68,64:1
68,65:18
68,66:18
68,67:18
68,68:1
68,69:18
68,70:18
69,50:1
69,55:1
69,56:1
69,60:1
69,61:1
69,65:1
69,66:1
69,67:1
69,69:1
69,70:1
70,50:1
70,55:1
70,56:1
70,60:1
70,61:1
70,65:1
70,66:1
70,67:1
70,69:1
70,70:1

<end>

<optimal SALBP-1 value>
8


<rand seed>
467321153

